unsat
(forall ((A (_ BitVec 1))
         (B (_ BitVec 1))
         (C (_ BitVec 1))
         (D (_ BitVec 32))
         (E (_ BitVec 32))
         (F (_ BitVec 1))
         (G (_ BitVec 2))
         (H (_ BitVec 32))
         (I (_ BitVec 1))
         (J (_ BitVec 1))
         (K (_ BitVec 1))
         (L (_ BitVec 2))
         (M (_ BitVec 1))
         (N (_ BitVec 1))
         (O (_ BitVec 6))
         (P (_ BitVec 1))
         (Q (_ BitVec 1))
         (R (_ BitVec 1))
         (S (_ BitVec 1))
         (T (_ BitVec 1))
         (U (_ BitVec 1))
         (V (_ BitVec 34))
         (W (_ BitVec 1))
         (X (_ BitVec 6))
         (Y (_ BitVec 1))
         (Z (_ BitVec 1))
         (A1 (_ BitVec 1))
         (B1 (_ BitVec 2))
         (C1 (_ BitVec 6))
         (D1 (_ BitVec 1))
         (E1 (_ BitVec 32))
         (F1 (_ BitVec 2))
         (G1 (_ BitVec 1))
         (H1 (_ BitVec 1))
         (I1 (_ BitVec 1))
         (J1 (_ BitVec 1))
         (K1 (_ BitVec 1))
         (L1 (_ BitVec 1))
         (M1 (_ BitVec 1))
         (N1 (_ BitVec 22))
         (O1 (_ BitVec 10))
         (P1 (_ BitVec 1))
         (Q1 (_ BitVec 22))
         (R1 (_ BitVec 1))
         (S1 (_ BitVec 1))
         (T1 (_ BitVec 1))
         (U1 (_ BitVec 1))
         (V1 (_ BitVec 1))
         (W1 (_ BitVec 1))
         (X1 (_ BitVec 1))
         (Y1 (_ BitVec 1))
         (Z1 (_ BitVec 32))
         (A2 (_ BitVec 1))
         (B2 (_ BitVec 2))
         (C2 (_ BitVec 1))
         (D2 (_ BitVec 22))
         (E2 (_ BitVec 1)))
  (! (let ((a!1 (or (not (= ((_ extract 1 1) G) #b1)) (= M #b0)))
           (a!2 (or (not ((_ bit2bool 4) C1))
                    (not (= Z #b1))
                    (not (= ((_ extract 0 0) G) #b1))
                    ((_ bit2bool 0) U1)))
           (a!3 (or (not (= Y #b0))
                    ((_ bit2bool 0) T1)
                    (not (= ((_ extract 0 0) C1) #b1))
                    (not (= ((_ extract 0 0) B1) #b1))))
           (a!4 (or (= F #b0)
                    (not (= Z #b1))
                    (not (= ((_ extract 0 0) C1) #b1))))
           (a!5 (or (not (= ((_ extract 0 0) C1) #b0))
                    (not (= ((_ extract 2 2) C1) #b0))
                    (not (= ((_ extract 1 1) C1) #b0))))
           (a!7 (not (or (= P #b0) (= F #b0) (not (= C1 #b000010)))))
           (a!8 (not (or (= P #b0) (= F #b0) (not (= C1 #b000001)))))
           (a!10 (or (not (= ((_ extract 5 1) C1) #b00000)) (= H1 #b0)))
           (a!12 (not (= (ite (= G #b00) #b11 (bvadd #b11 G)) #b01)))
           (a!14 (or (not (= T #b1)) (not (= ((_ extract 0 0) G) #b1))))
           (a!15 (or (= M #b0)
                     (not (or (= R #b0) (= H1 #b0)))
                     (not (bvule ((_ extract 4 0) C1) #b10001))
                     (not (= ((_ extract 5 5) C1) #b0))))
           (a!17 (or (not (= ((_ extract 4 4) C1) #b0))
                     (not (= ((_ extract 0 0) C1) #b0))
                     (not (= ((_ extract 5 5) C1) #b0))
                     (not (= ((_ extract 3 3) C1) #b0))
                     (not (= ((_ extract 2 2) C1) #b0))
                     (not (= ((_ extract 1 1) C1) #b0))))
           (a!21 (or (= C1 #b000000)
                     (not (= ((_ extract 1 1) G) #b1))
                     (not ((_ bit2bool 0) Z))))
           (a!22 (or (= C1 #b000000)
                     (not (= S #b1))
                     (not (= R #b0))
                     (not (= J #b0))
                     (not (= ((_ extract 5 1) C1) #b00000))
                     (= ((_ extract 0 0) B1) #b1)))
           (a!23 (or (= M #b0)
                     (not ((_ bit2bool 1) C1))
                     ((_ bit2bool 0) G1)
                     (= ((_ extract 4 4) (bvadd #b111111 C1)) #b1)))
           (a!24 (or (= C1 #b000000)
                     (not (= I1 #b1))
                     (not (= D1 #b0))
                     (not (= ((_ extract 1 1) G) #b1))
                     (not (= W1 #b0))))
           (a!25 (or (not (= D1 #b0))
                     (not (= W1 #b0))
                     (not (= H1 #b1))
                     (= T1 #b0)
                     (not (= ((_ extract 0 0) G) #b1))))
           (a!26 (or (= M #b0)
                     (not (bvule ((_ extract 4 0) C1) #b10001))
                     (not (= ((_ extract 5 5) C1) #b0))))
           (a!27 (ite (= M #b1)
                      (= ((_ extract 0 0) O1) #b0)
                      (= ((_ extract 1 1) O1) #b0)))
           (a!29 (or (= I1 #b1)
                     (not (= D1 #b0))
                     (not (= ((_ extract 1 1) G) #b1))
                     (not (= H1 #b1))
                     (= T1 #b0)))
           (a!30 (or (= ((_ extract 4 4) C1) #b0)
                     (= ((_ extract 5 5) (bvadd #b111111 C1)) #b0)))
           (a!31 (or (not ((_ bit2bool 1) O1))
                     (not ((_ bit2bool 5) V))
                     (not (= ((_ extract 0 0) G) #b1))))
           (a!32 (or (= M #b0)
                     (not (= D1 #b0))
                     (not (= T1 #b1))
                     (bvule (bvadd #b11111 ((_ extract 4 0) C1)) #b10001)))
           (a!33 (= (ite (= M #b1) (concat ((_ extract 31 0) V) #b00) V)
                    #b0001000000000000000001000010000000))
           (a!34 (ite (= M #b1)
                      (= ((_ extract 30 30) V) #b1)
                      (= ((_ extract 32 32) V) #b1)))
           (a!35 (ite (= M #b1)
                      (= ((_ extract 28 28) V) #b1)
                      (= ((_ extract 30 30) V) #b1)))
           (a!36 (ite (= G #b00)
                      (or (not (= T1 #b0)) (= ((_ extract 0 0) G) #b1))
                      (= ((_ extract 0 0) G) #b0)))
           (a!39 (or (not (= S #b1))
                     (not (= D1 #b0))
                     (not ((_ bit2bool 30) V))
                     (not (= ((_ extract 1 1) G) #b1))
                     (not (= H1 #b1))
                     (= T1 #b0)
                     ((_ bit2bool 6) E1)))
           (a!40 (or (not (= Q #b1))
                     (not (= ((_ extract 1 1) G) #b1))
                     (not (= ((_ extract 0 0) C1) #b1))))
           (a!41 (or (not (= ((_ extract 32 32) V) #b1))
                     (= ((_ extract 0 0) G) #b1)
                     ((_ bit2bool 0) U1)
                     (not ((_ bit2bool 0) A1))))
           (a!43 (or (not (= M #b1))
                     (not (= H1 #b1))
                     (not (= ((_ extract 6 6) E1) #b1))
                     (not (= G1 #b0))
                     (not (= T1 #b1))
                     (= ((_ extract 30 30) V) #b1)
                     (= ((_ extract 28 28) V) #b1)))
           (a!44 (or (not (= ((_ extract 0 0) C1) #b0))
                     (= ((_ extract 0 0) O1) #b0)))
           (a!45 (or (= ((_ extract 1 1) O1) #b0)
                     (not (= ((_ extract 1 1) G) #b1))
                     (not (= U1 #b1))))
           (a!46 (ite (= G #b00)
                      (or (not (= Z #b1)) (= ((_ extract 1 1) G) #b1))
                      (= ((_ extract 1 1) (bvadd #b11 G)) #b1)))
           (a!47 (or (not ((_ bit2bool 1) O1))
                     (not (= ((_ extract 1 1) B1) #b1))
                     (not (= G #b10))))
           (a!48 (or (not (= ((_ extract 1 1) B1) #b1))
                     (= ((_ extract 2 2) O1) #b0)))
           (a!49 (or (not ((_ bit2bool 1) O1))
                     (not (= ((_ extract 6 6) E1) #b1))
                     (not (= ((_ extract 0 0) G) #b1))
                     (= ((_ extract 30 30) V) #b1)))
           (a!50 (or (= ((_ extract 1 1) O1) #b0)
                     (not (= G #b10))
                     (not (= ((_ extract 6 6) E1) #b1))
                     (= ((_ extract 30 30) V) #b1)))
           (a!51 (or (= S1 #b1)
                     (not (= ((_ extract 0 0) C1) #b1))
                     (not (= T1 #b0))))
           (a!52 (or (= ((_ extract 32 32) V) #b1)
                     (not ((_ bit2bool 2) O1))
                     (not (= ((_ extract 6 6) E1) #b1))
                     ((_ bit2bool 0) Q)))
           (a!53 (or ((_ bit2bool 6) E1)
                     (not (= ((_ extract 32 32) V) #b1))
                     (= ((_ extract 2 2) O1) #b0)))
           (a!54 (ite (= M #b1)
                      (= ((_ extract 1 1) O1) #b0)
                      (= ((_ extract 2 2) O1) #b0)))
           (a!57 (or (not ((_ bit2bool 1) O1))
                     (not (= ((_ extract 1 1) G) #b1))
                     ((_ bit2bool 8) E)))
           (a!58 (or (not (= ((_ extract 32 32) V) #b1))
                     (not (= Q #b1))
                     (not (= G #b10))))
           (a!59 (or (not ((_ bit2bool 1) O1))
                     ((_ bit2bool 0) H1)
                     (not (= ((_ extract 0 0) G) #b1))))
           (a!60 (not (= ((_ extract 32 32) V)
                         (ite (= M #b1)
                              ((_ extract 30 30) V)
                              ((_ extract 32 32) V)))))
           (a!62 (or (= S #b1)
                     (= B1 #b00)
                     (not (= ((_ extract 32 32) V) #b1))
                     (= H1 #b0))))
     (let ((a!6 (and (not (= Z #b1))
                     (not (= S1 #b0))
                     (or (= M #b0) (not (= C1 #b000001)))
                     a!5
                     (= Q1 N1)))
           (a!9 (ite (or (= M #b1) (= C1 #b000000))
                     (or a!7 (= ((_ extract 5 1) C1) #b00000))
                     a!8))
           (a!11 (ite (or (= M #b0) (= U1 #b0))
                      (= U1 #b1)
                      (or (= ((_ extract 5 1) C1) #b00000) (not a!10))))
           (a!16 (= (ite (or (= H1 #b0) (= S #b1)) (ite a!15 B1 #b11) #b00)
                    #b10))
           (a!18 (= (ite (or (= M #b0) (not a!17)) C1 (bvadd #b111111 C1))
                    #b000000))
           (a!19 (ite (or (= M #b0) (not a!17))
                      (= ((_ extract 4 4) C1) #b1)
                      (= ((_ extract 4 4) (bvadd #b111111 C1)) #b1)))
           (a!28 (or (not (= (ite a!26 B1 #b11) #b10)) a!27))
           (a!37 (or (not ((_ bit2bool 6) E1))
                     (not (= G1 #b0))
                     a!27
                     (and (= T1 #b1) a!34)
                     (ite (= T1 #b1) a!35 (= ((_ extract 20 20) D2) #b1))
                     (not a!36)))
           (a!38 (or (not ((_ bit2bool 6) E1))
                     (not (= ((_ extract 0 0) G) #b1))
                     a!27
                     (and (= T1 #b1) a!34)
                     (ite (= T1 #b1) a!35 (= ((_ extract 20 20) D2) #b1))))
           (a!42 (or (not (= ((_ extract 10 10) E) #b1)) (= I1 #b1) a!27))
           (a!55 (or a!54 (not (= ((_ extract 6 6) E1) #b1)) a!34))
           (a!56 (or (= B1 #b00) (not (= ((_ extract 12 12) H) #b0)) a!27))
           (a!61 (or (not (= I #b0))
                     (not (= ((_ extract 0 0) G) #b1))
                     ((_ bit2bool 6) E1)
                     a!27
                     (not a!35))))
     (let ((a!13 (or a!11 a!12 (and (not (= T #b0)) (not (= U1 #b1)))))
           (a!20 (or (= I1 #b1)
                     (not (= D1 #b0))
                     (not (= ((_ extract 1 1) G) #b1))
                     a!16
                     a!18
                     a!19)))
     (let ((a!63 (and (or ((_ bit2bool 6) E1)
                          (not ((_ bit2bool 30) V))
                          (= ((_ extract 1 1) O1) #b0))
                      (not ((_ bit2bool 3) V))
                      (not (= W #b1))
                      (or ((_ bit2bool 0) D1)
                          (not (= F #b1))
                          ((_ bit2bool 0) T1))
                      (or (= F #b0) ((_ bit2bool 0) I))
                      (or (not (= H1 #b1)) (not (= L1 #b1)))
                      (or (not ((_ bit2bool 0) G1)) (not (= C1 #b000000)))
                      (or (not ((_ bit2bool 0) T1))
                          (not (= C1 #b000000))
                          (not (= A2 #b1)))
                      (or (not (= L1 #b1)) (= ((_ extract 1 1) G) #b1))
                      (or (not (= M #b1)) (= P #b0))
                      (or (= M #b0)
                          (not (= Y #b0))
                          (not ((_ bit2bool 32) V))
                          ((_ bit2bool 0) T1))
                      (or (not (= F #b1)) (not ((_ bit2bool 0) I1)))
                      (or (not (= L1 #b1)) (= ((_ extract 0 0) G) #b1))
                      (or (not ((_ bit2bool 32) V)) (not (= D1 #b0)))
                      (or (not (= P #b0)) (not (= G #b01)))
                      a!1
                      a!2
                      (or ((_ bit2bool 0) U1)
                          (not ((_ bit2bool 0) A1))
                          (not (= T1 #b0)))
                      a!3
                      (or (= P #b0) (= G #b01))
                      a!4
                      (or (not ((_ bit2bool 0) T1))
                          (not (= G #b01))
                          a!6
                          (not a!9))
                      a!13
                      (or (= M #b0) (not (= C1 #b000001)) (not (= G1 #b0)))
                      (or (not (= C1 #b000001))
                          (not (= D1 #b0))
                          (not ((_ bit2bool 0) T1)))
                      (or (= B1 #b00) (not (= C1 #b000000)) (= T1 #b0))
                      (or (= B1 #b00) (not (= L1 #b1)))
                      (or (not ((_ bit2bool 0) T1))
                          (not (= C1 #b000000))
                          (not (= Y1 #b1)))
                      (or (not (= C1 #b000000))
                          (not (= T1 #b1))
                          (= ((_ extract 0 0) G) #b1))
                      (or (not (= Y #b0)) (not (= U1 #b0)) (not (= G #b01)))
                      a!14
                      (or (not (= W1 #b1)) (not (= Z #b1)))
                      (or (= C1 #b000000)
                          (not (= D1 #b0))
                          (not (= G #b11))
                          (= ((_ extract 4 4) C1) #b1))
                      a!20
                      a!21
                      (or (not (= U1 #b0))
                          (not (= G #b01))
                          (= ((_ extract 4 4) C1) #b1))
                      (or (not (= M #b1))
                          ((_ bit2bool 0) Y)
                          (not (= J #b0))
                          (not (= Q #b1)))
                      a!22
                      a!23
                      (or (= M #b0) (= U1 #b1) (= ((_ extract 4 4) C1) #b1))
                      (or (not (= Y #b0))
                          (not (= G #b10))
                          ((_ bit2bool 0) U1)
                          (not ((_ bit2bool 0) A1)))
                      (or ((_ bit2bool 1) B1) (not ((_ bit2bool 0) B1)))
                      a!24
                      (or (not (= D1 #b0))
                          (not (= I #b0))
                          (= T1 #b0)
                          (not (= G #b01)))
                      a!25
                      a!28
                      (or (not (= D1 #b0)) (not (= H1 #b1)) (not (= G #b11)))
                      a!29
                      (or (= M #b0)
                          (not (= Y #b0))
                          (not ((_ bit2bool 32) V))
                          ((_ bit2bool 0) G1))
                      (or (= S #b1)
                          (= B1 #b00)
                          (not (= J #b0))
                          (not (= H1 #b1)))
                      (or (= M #b0)
                          (not (= J #b0))
                          (not (= H1 #b1))
                          (not (= G1 #b0))
                          (not (= T1 #b1)))
                      a!30
                      (or (not ((_ bit2bool 5) C1)) (not (= H1 #b1)))
                      (not (= ((_ extract 0 0) V) #b1))
                      (or (not ((_ bit2bool 1) O1))
                          (not (= G #b10))
                          (not ((_ bit2bool 5) V)))
                      (not (= ((_ extract 1 1) V) #b1))
                      a!31
                      a!32
                      (or (not (= D1 #b0))
                          (not (= V #b0001000000000000000010000000000000)))
                      (or ((_ bit2bool 5) V) (not (= D1 #b0)) (= P #b0))
                      (or (= R #b0) ((_ bit2bool 5) V) (not (= D1 #b0)))
                      (or (not (= D1 #b0)) (not a!33))
                      (or (= Z #b1) (not (= D1 #b0)) ((_ bit2bool 7) V))
                      a!37
                      (or (not ((_ bit2bool 6) E1))
                          (not (= T1 #b1))
                          a!27
                          a!34
                          a!35)
                      a!38
                      (or (not (= Q #b1)) (= T1 #b0) (not (= G #b01)))
                      (or (not ((_ bit2bool 0) O1)) (not (= W1 #b0)))
                      (or (not ((_ bit2bool 0) O1)) (not (= T1 #b0)))
                      (or (= B1 #b00) (not (= J1 #b0)))
                      (or (not ((_ bit2bool 2) O1)) (not (= D1 #b0)))
                      (or (not (= H1 #b1)) (not (= J1 #b0)))
                      (or (= C1 #b000000) (= P #b0) (not ((_ bit2bool 0) Z)))
                      (or (= S #b1)
                          (= B1 #b00)
                          (not (= H1 #b1))
                          (not (= G #b11)))
                      (or (not (= M #b1)) (not (= Q #b1)) (not (= T1 #b1)))
                      (or (not (= G1 #b1)) (not (= M #b0)))
                      (or (= S #b1) (= I1 #b1) (= B1 #b00) (not (= H1 #b1)))
                      (or (not (= S #b1)) (not ((_ bit2bool 1) O1)))
                      a!39
                      (or (not ((_ bit2bool 33) V)) (not (= D1 #b0)))
                      a!40
                      (or (not (= G1 #b1)) (= U1 #b1))
                      (or (not (= T #b1)) (= M #b0))
                      (or (not ((_ bit2bool 9) V)) (not (= D1 #b0)))
                      a!41
                      (or (= M #b0)
                          (= I1 #b1)
                          (not (= H1 #b1))
                          (not (= T1 #b1))
                          ((_ bit2bool 0) G1))
                      (or (= S #b1)
                          (= B1 #b00)
                          (not (= I #b0))
                          (not (= H1 #b1)))
                      (or ((_ bit2bool 0) T1) a!18)
                      (or (= ((_ extract 1 1) B1) #b1)
                          (= C1 #b000000)
                          (not (= S #b1)))
                      (or (not (= G1 #b1)) (not (= I #b0)) ((_ bit2bool 0) T1))
                      (or ((_ bit2bool 0) G1)
                          (not ((_ bit2bool 1) O1))
                          (not (= M #b1)))
                      (or (not (= G1 #b1)) (not (= D1 #b0)))
                      (or (= ((_ extract 0 0) O1) #b0)
                          (not (= T1 #b1))
                          (not (= H1 #b0)))
                      a!42
                      (or (= ((_ extract 1 1) O1) #b0) ((_ bit2bool 12) E))
                      (or (= ((_ extract 1 1) B1) #b1)
                          (not (= D1 #b0))
                          (not ((_ bit2bool 5) C1)))
                      a!43
                      (or (= S #b1)
                          (= B1 #b00)
                          (not (= W1 #b1))
                          (not (= H1 #b1)))
                      (or (not ((_ bit2bool 1) O1)) (not (= D1 #b0)))
                      a!44
                      a!45
                      (or (not ((_ bit2bool 6) E1))
                          (not (= D1 #b0))
                          (not (= H1 #b1))
                          (not (= S #b0))
                          ((_ bit2bool 28) V)
                          (not (= T1 #b1)))
                      (or ((_ bit2bool 5) V) (not (= D1 #b0)) (= B1 #b00))
                      (or (= M #b0)
                          (bvule ((_ extract 4 0) C1) #b10001)
                          (not (= D1 #b0))
                          (not (= T1 #b1)))
                      (or (not (= S #b1)) (= ((_ extract 0 0) O1) #b0))
                      (or (= ((_ extract 1 1) O1) #b0)
                          (not ((_ bit2bool 10) E)))
                      (or (not (= W1 #b1)) (not (= H1 #b0)) a!27 a!46)
                      (or (= ((_ extract 2 2) O1) #b0)
                          ((_ bit2bool 13) E)
                          ((_ bit2bool 12) E)
                          ((_ bit2bool 14) E)
                          ((_ bit2bool 8) E))
                      (or (not (= Q #b1)) (not (= G1 #b1)))
                      (or ((_ bit2bool 6) E1)
                          (not ((_ bit2bool 28) V))
                          (= ((_ extract 0 0) O1) #b0))
                      a!47
                      a!48
                      (or ((_ bit2bool 28) V)
                          (not ((_ bit2bool 0) O1))
                          (not ((_ bit2bool 6) E1)))
                      a!49
                      a!50
                      (or (not (= I1 #b1)) (not (= G1 #b1)) ((_ bit2bool 0) T1))
                      a!51
                      (or (not (= H1 #b1)) (not (= F #b1)))
                      a!52
                      (or (not (= G1 #b1)) (not (= H1 #b1)) ((_ bit2bool 0) T1))
                      (or (not (= C1 #b000001)) (= ((_ extract 1 1) O1) #b0))
                      (or (not (= Q #b1)) (= ((_ extract 2 2) O1) #b0))
                      (or ((_ bit2bool 0) T1) (= ((_ extract 2 2) O1) #b0))
                      (or (= ((_ extract 2 2) O1) #b0) (not (= H1 #b0)))
                      (or (not ((_ bit2bool 4) C1)) (not (= H1 #b1)))
                      (or (= ((_ extract 1 1) O1) #b0)
                          (not (= G #b00))
                          (not (= M #b0)))
                      a!53
                      a!55
                      a!56
                      a!57
                      a!58
                      (or (= ((_ extract 3 3) C1) #b1)
                          (not ((_ bit2bool 0) O1)))
                      (or (not ((_ bit2bool 1) O1)) (not (= Q #b1)))
                      (or (not ((_ bit2bool 1) O1)) (not (= T1 #b0)))
                      (or (not ((_ bit2bool 1) O1)) (not (= W1 #b0)))
                      (or (not (= C1 #b000000)) (not (= T1 #b1)) (= H1 #b0))
                      a!59
                      (or (= M #b0)
                          (= ((_ extract 1 1) O1) #b0)
                          ((_ bit2bool 0) H1))
                      (or (not ((_ bit2bool 3) O1))
                          (= ((_ extract 0 0) B2) #b1)
                          (not a!34)
                          a!60)
                      (or (not (= I #b0)) a!54 ((_ bit2bool 6) E1) (not a!34))
                      a!61
                      a!62)))
       (= (INV!slice!1 A
                       B
                       C
                       D
                       E
                       F
                       G
                       H
                       I
                       J
                       K
                       L
                       M
                       N
                       O
                       P
                       Q
                       R
                       S
                       T
                       U
                       V
                       W
                       X
                       Y
                       Z
                       A1
                       B1
                       C1
                       D1
                       E1
                       F1
                       G1
                       H1
                       I1
                       J1
                       K1
                       L1
                       M1
                       N1
                       O1
                       P1
                       Q1
                       R1
                       S1
                       T1
                       U1
                       V1
                       W1
                       X1
                       Y1
                       Z1
                       A2
                       B2
                       C2
                       D2
                       E2)
          a!63)))))
     :weight 0))
